40
471, 223
343, 233
298, 103
440, 49
99, 42
246, 30
492, 200
552, 180
154, 268
413, 143
106, 62
583, 114
63, 289
409, 307
82, 155
295, 5
514, 182
24, 42
468, 247
581, 12
67, 148
228, 300
563, 41
326, 130
332, 6
117, 229
338, 247
349, 65
546, 246
121, 50
347, 42
324, 16
318, 274
48, 126
269, 185
30, 299
510, 275
29, 104
582, 222
313, 121